33D32945 STP File, STP Format Version 1.0

SECTION Comments
Name "icosahedron"
Problem "Euclidean Steiner Tree Problem"
Remark "Converted automatically"
END

SECTION Graph
Nodes 12
END

SECTION Coordinates
DDD 1 1.00000000000000 0.00000000000000 1.61803398000000 
DDD 2 0.00000000000000 1.61803398000000 1.00000000000000 
DDD 3 1.61803398000000 1.00000000000000 0.00000000000000 
DDD 4 -1.00000000000000 0.00000000000000 1.61803398000000 
DDD 5 0.00000000000000 1.61803398000000 -1.00000000000000 
DDD 6 1.61803398000000 -1.00000000000000 0.00000000000000 
DDD 7 1.00000000000000 0.00000000000000 -1.61803398000000 
DDD 8 0.00000000000000 -1.61803398000000 1.00000000000000 
DDD 9 -1.61803398000000 1.00000000000000 0.00000000000000 
DDD 10 -1.00000000000000 0.00000000000000 -1.61803398000000 
DDD 11 0.00000000000000 -1.61803398000000 -1.00000000000000 
DDD 12 -1.61803398000000 -1.00000000000000 0.00000000000000 
END

EOF
